(set-logic QF_BV)
(declare-fun _substvar_227_ () (_ BitVec 12))
(declare-fun _substvar_191_ () (_ BitVec 12))
(declare-fun _substvar_246_ () (_ BitVec 12))
(declare-fun _substvar_176_ () (_ BitVec 12))
(declare-fun _substvar_243_ () (_ BitVec 12))
(declare-fun _substvar_236_ () (_ BitVec 12))
(declare-fun _substvar_175_ () (_ BitVec 12))
(declare-fun _substvar_192_ () (_ BitVec 12))
(assert (or false false false false false false false false false false false false (and true (bvugt _substvar_227_ (_ bv1 12)) (= _substvar_175_ (bvsub _substvar_227_ (_ bv1 12)))) (and true true (= _substvar_175_ (_ bv0 12))) false false false false false false false false false false))
(assert (or false false false false false false false false false false false false false false false false false false false false (and true true (bvugt _substvar_227_ (_ bv0 12)) (= _substvar_236_ (_ bv0 12))) (and true true (bvugt _substvar_176_ (_ bv0 12)) (= _substvar_236_ (bvsub _substvar_176_ _substvar_227_))) false false false false false false false false false false false false false false false false))
(assert (or false false false false false false false false false false false false false (and true true true (= _substvar_191_ (_ bv0 12))) false false false false false false false false false false false false false false false false false false false false false false false false false false false false false false false false false false false false false false false false false false false false false false false false false false false false false false false (and true true true (= _substvar_191_ (bvsub _substvar_192_ _substvar_236_))) false false false false false))
(assert (or false false false false false false false false false false false false false false false false false false false false false false false false false false false false false false false false false false false false false false false false false false false false false false false false false false false false false false false false false false false false false false false false false false false false false false false false (and true true (bvugt _substvar_175_ (_ bv0 12)) (= _substvar_243_ (bvsub _substvar_175_ _substvar_191_))) (and true true true (= _substvar_243_ (_ bv0 12))) false false false false false false false false false false false false false false false false false false false false false false false false))
(assert (or false false false false false false false false false false false false false false false false false false false false false false false false false false false false false false false false false false false false false false false false false false false false false false false false false false false false false false false false false false false false false false false false false false false false false false false false false false false false false false (and true true (bvugt _substvar_175_ _substvar_192_) (= _substvar_246_ (_ bv0 12))) (and true true (bvugt _substvar_192_ (_ bv0 12)) (= _substvar_246_ (bvsub (_ bv0 12) _substvar_175_))) false false false false false false false false false false false false false false false false false false false false false false false false false false false false false false false false false false false false false false false false false false false false))
(assert (or false false (= (_ bv507 12) _substvar_175_) (= (_ bv507 12) _substvar_236_) (= (_ bv507 12) _substvar_192_) (= (_ bv507 12) _substvar_191_) (= (_ bv507 12) _substvar_243_) (= (_ bv507 12) _substvar_246_) false false))
(assert (or (= (_ bv155 12) _substvar_227_) (= (_ bv155 12) _substvar_176_) (= (_ bv155 12) _substvar_175_) (= (_ bv155 12) _substvar_236_) (= (_ bv155 12) _substvar_192_) false (= (_ bv155 12) _substvar_243_) false false false))
(assert (or (= (_ bv95 12) _substvar_227_) (= (_ bv95 12) _substvar_176_) false (= (_ bv95 12) _substvar_236_) (= (_ bv95 12) _substvar_192_) (= (_ bv95 12) _substvar_191_) (= (_ bv95 12) _substvar_243_) (= (_ bv95 12) _substvar_246_) false false))
(assert (or (= (_ bv307 12) _substvar_227_) (= (_ bv307 12) _substvar_176_) false false (= (_ bv307 12) _substvar_192_) (= (_ bv307 12) _substvar_191_) (= (_ bv307 12) _substvar_243_) (= (_ bv307 12) _substvar_246_) false false))
(check-sat)
(exit)
